qbf_easy_train/easy_4612_SAT.qdimacs
p cnf 25 59
a 16 2 20 0
e 1 3 4 5 6 7 8 9 10 11 12 13 14 15 17 18 19 21 22 23 24 25 0
1 2 -3 0
-1 -2 -3 0
1 -2 3 0
-1 2 3 0
-5 3 0
-5 4 0
-3 -4 5 0
8 -6 0
8 -7 0
6 7 -8 0
-9 5 0
-9 8 0
-5 -8 9 0
-10 -8 0
-10 -2 0
8 2 10 0
11 -6 0
11 3 0
6 -3 -11 0
12 10 0
12 11 0
-10 -11 -12 0
13 9 0
13 12 0
-9 -12 -13 0
-4 7 -14 0
4 -7 -14 0
-4 -7 14 0
4 7 14 0
-16 -14 0
-16 -15 0
14 15 16 0
-17 -16 0
-17 -4 0
16 4 17 0
19 -17 0
19 18 0
17 -18 -19 0
20 -13 0
20 19 0
13 -19 -20 0
21 5 0
21 18 0
-5 -18 -21 0
-23 3 0
-23 22 0
-3 -22 23 0
-24 -21 0
-24 -23 0
21 23 24 0
25 -20 0
25 24 0
20 -24 -25 0
-8 -7 15 -2 0
1 -8 -22 6 24 0
-8 16 7 0
22 -17 25 0
16 -15 -13 11 21 7 0
25 0
