sat_easy_train/easy_4612_SAT.dimacs
p cnf 88 270
4 2 0
4 -3 0
-2 3 -4 0
6 4 0
6 -5 0
-4 5 -6 0
-9 8 0
-9 -1 0
-8 1 9 0
-10 -9 0
-10 7 0
9 -7 10 0
-11 -7 0
-11 -10 0
7 10 11 0
6 -11 -12 0
-6 11 -12 0
6 11 12 0
-6 -11 12 0
-13 1 0
-13 -12 0
-1 12 13 0
15 -5 0
15 -14 0
5 14 -15 0
-4 15 -16 0
4 -15 -16 0
-4 -15 16 0
4 15 16 0
-17 9 -18 0
17 -9 -18 0
-17 -9 18 0
17 9 18 0
19 18 0
19 5 0
-18 -5 -19 0
-20 16 0
-20 -19 0
-16 19 20 0
21 -20 0
21 7 0
20 -7 -21 0
22 -21 0
22 -9 0
21 9 -22 0
23 13 0
23 -22 0
-13 22 -23 0
24 -3 0
24 3 0
25 -20 0
25 2 0
20 -2 -25 0
-8 25 -26 0
8 -25 -26 0
-8 -25 26 0
8 25 26 0
28 8 0
28 -27 0
-8 27 -28 0
-29 26 0
-29 -28 0
-26 28 29 0
30 9 0
30 -14 0
-9 14 -30 0
-31 30 0
-31 -14 0
-30 14 31 0
-32 -29 0
-32 31 0
29 -31 32 0
33 24 0
33 -32 0
-24 32 -33 0
-35 34 0
-35 -1 0
-34 1 35 0
36 35 0
36 -3 0
-35 3 -36 0
-37 15 0
-37 -34 0
-15 34 37 0
-36 -37 -38 0
36 37 -38 0
-36 37 38 0
36 -37 38 0
39 20 0
39 38 0
-20 -38 -39 0
-40 -33 0
-40 -39 0
33 39 40 0
-41 -3 -42 0
41 3 -42 0
-41 3 42 0
41 -3 42 0
-40 42 -43 0
40 -42 -43 0
-40 -42 43 0
40 42 43 0
-44 23 0
-44 43 0
-23 -43 44 0
45 16 0
45 -4 0
-16 4 -45 0
46 16 0
46 -6 0
-16 6 -46 0
48 47 0
48 17 0
-47 -17 -48 0
-46 48 -49 0
46 -48 -49 0
-46 -48 49 0
46 48 49 0
50 -36 0
50 11 0
36 -11 -50 0
-51 7 0
-51 21 0
-7 -21 51 0
52 50 0
52 51 0
-50 -51 -52 0
-3 15 -53 0
3 -15 -53 0
-3 -15 53 0
3 15 53 0
54 -53 0
54 5 0
53 -5 -54 0
56 55 0
56 3 0
-55 -3 -56 0
57 -41 0
57 -56 0
41 56 -57 0
-58 -17 0
-58 18 0
17 -18 58 0
-57 58 -59 0
57 -58 -59 0
-57 -58 59 0
57 58 59 0
-54 -59 -60 0
54 59 -60 0
-54 59 60 0
54 -59 60 0
-60 61 -62 0
60 -61 -62 0
-60 -61 62 0
60 61 62 0
63 52 0
63 -62 0
-52 62 -63 0
-49 -63 -64 0
49 63 -64 0
-49 63 64 0
49 -63 64 0
45 64 -65 0
-45 -64 -65 0
45 -64 65 0
-45 64 65 0
-21 -67 -68 0
21 67 -68 0
-21 67 68 0
21 -67 68 0
69 66 0
69 68 0
-66 -68 -69 0
70 65 0
70 69 0
-65 -69 -70 0
-56 8 -71 0
56 -8 -71 0
-56 -8 71 0
56 8 71 0
-15 -66 -72 0
15 66 -72 0
-15 66 72 0
15 -66 72 0
73 -71 0
73 72 0
71 -72 -73 0
-74 -66 0
-74 66 0
75 74 0
75 -14 0
-74 14 -75 0
2 53 -76 0
-2 -53 -76 0
2 -53 76 0
-2 53 76 0
-77 12 0
-77 -76 0
-12 76 77 0
-78 75 0
-78 -77 0
-75 77 78 0
2 -41 -79 0
-2 41 -79 0
2 41 79 0
-2 -41 79 0
-80 79 0
-80 -4 0
-79 4 80 0
-81 -66 0
-81 34 0
66 -34 81 0
-82 -80 0
-82 81 0
80 -81 82 0
-78 -82 -83 0
78 82 -83 0
-78 82 83 0
78 -82 83 0
84 73 0
84 83 0
-73 -83 -84 0
85 -70 0
85 -84 0
70 84 -85 0
-86 17 0
-86 -17 0
85 86 -87 0
-85 -86 -87 0
85 -86 87 0
-85 86 87 0
-88 -44 0
-88 -87 0
44 87 88 0
39 15 -32 -60 -37 -63 0
-47 88 80 49 0
88 23 65 -63 -9 57 0
-58 61 26 78 -72 -38 0
-77 -32 22 0
67 12 -17 84 26 0
-67 85 -81 87 -6 -40 0
49 33 0
-50 14 34 0
60 63 0
83 73 29 45 0
62 -52 66 -77 2 0
-10 -20 85 0
-41 -62 10 29 -42 -73 0
-58 -85 0
-44 -62 38 -39 -4 0
-19 -74 -54 80 -32 0
31 -81 -57 29 0
46 -11 -3 4 -73 0
87 -51 0
76 24 0
-33 -56 71 0
79 -3 0
12 42 -71 -73 -69 0
-25 77 60 0
-42 -10 44 0
75 8 -20 58 0
-62 -4 -70 38 0
69 -68 -6 60 80 0
25 -70 23 -86 0
-21 -50 3 83 0
-66 -50 0
35 -41 14 -36 -78 -55 0
70 -86 -2 -57 87 0
37 -16 -58 25 44 0
88 0
